SCIP version 5.0.0 [precision: 8 byte] [memory: block] [mode: optimized] [LP solver: NONE] [GitHash: 3bbd232]
Copyright (C) 2002-2017 Konrad-Zuse-Zentrum fuer Informationstechnik Berlin (ZIB)

External codes: 
  Readline EditLine w  GNU library for command line editing (gnu.org/s/readline)
  CppAD 20160000.1     Algorithmic Differentiation of C++ algorithms developed by B. Bell (www.coin-or.org/CppAD)
  ZLIB 1.2.5           General purpose compression library by J. Gailly and M. Adler (zlib.net)
  GMP 6.1.2            GNU Multiple Precision Arithmetic Library developed by T. Granlund (gmplib.org)

user parameter file <scip.set> not found - using default parameters

read problem <../../Split_data/output/statG/8/1_sample_statG.logreg>
============

File name	:	../../Split_data/output/statG/8/1_sample_statG.logreg
Problem name 	:	1_sample_statG
Number of data	:	800
Number of var	:	61
The given data has linear dependence
13 sets of column vector are linearly dependent:

[dim=1] time: 0.039082
[dim=2] time: 0.085792
[dim=3] time: 0.131861
[dim=4] time: 0.176868
[dim=5] time: 0.224392
[dim=6] time: 0.282026
[dim=7] time: 0.329059
[dim=8] time: 0.372156
[dim=9] time: 0.414889
[dim=10] time: 0.457231
[dim=11] time: 0.499769
[dim=12] time: 0.539992
[dim=13] time: 0.582178
[dim=14] time: 0.624397
[dim=15] time: 0.667708
[dim=16] time: 0.708816
[dim=17] time: 0.747345
[dim=18] time: 0.794124
[dim=19] time: 0.87264
[dim=20] time: 0.913042
[dim=21] time: 0.955569
[dim=22] time: 1.00049
[dim=23] time: 1.0381
[dim=24] time: 1.1084
[dim=25] time: 1.14106
[dim=26] Time of forward = 1.18387sec.
AIC: 773.005
k: 25

[dim=48] time: 0.174551
[dim=47] time: 0.24413
[dim=46] time: 0.399171
[dim=45] time: 0.491818
[dim=44] time: 0.627954
[dim=43] time: 0.709762
[dim=42] time: 0.812283
[dim=41] time: 0.875316
[dim=40] time: 0.973797
[dim=39] time: 1.05658
[dim=38] time: 1.14635
[dim=37] time: 1.25594
[dim=36] time: 1.32983
[dim=35] time: 1.40627
[dim=34] time: 1.48094
[dim=33] time: 1.56962
[dim=32] time: 1.63611
[dim=31] time: 1.70646
[dim=30] time: 1.7647
[dim=29] time: 1.80888
[dim=28] time: 1.86529
[dim=27] Time of backward = 1.9209sec.
AIC: 774.321
k: 28
